\ Model Assignment Problem with Minimum Course Load
\ LP format - for model browsing. Use MPS format to capture full model detail.
Maximize
  81.6941770072021 x[0,0] + 92.19518326958359 x[0,1]
   + 63.34072903131834 x[0,2] + 84.24529243987084 x[0,3]
   + 56.56765472107076 x[1,0] + 55.02469824862693 x[1,1]
   + 95.84231924690427 x[1,2] + 14.61884825487328 x[1,3]
   + 70.53632379006245 x[2,0] + 76.82892561576506 x[2,1]
   + 74.74198762746525 x[2,2] + 58.63193032276559 x[2,3]
   + 40.70272077506196 x[3,0] + 14.77910228106692 x[3,1]
   + 52.15485636032493 x[3,2] + 77.29771484876071 x[3,3]
   + 75.95866819367696 x[4,0] + 39.78061025375438 x[4,1]
   + 44.15507224455527 x[4,2] + 54.8094133001067 x[4,3]
Subject To
 student_0_min_courses: x[0,0] + x[0,1] + x[0,2] + x[0,3] >= 1
 student_1_min_courses: x[1,0] + x[1,1] + x[1,2] + x[1,3] >= 1
 student_2_min_courses: x[2,0] + x[2,1] + x[2,2] + x[2,3] >= 1
 student_3_min_courses: x[3,0] + x[3,1] + x[3,2] + x[3,3] >= 1
 student_4_min_courses: x[4,0] + x[4,1] + x[4,2] + x[4,3] >= 1
 course_0_capacity: x[0,0] + x[1,0] + x[2,0] + x[3,0] + x[4,0] <= 100
 course_1_capacity: x[0,1] + x[1,1] + x[2,1] + x[3,1] + x[4,1] <= 100
 course_2_capacity: x[0,2] + x[1,2] + x[2,2] + x[3,2] + x[4,2] <= 100
 course_3_capacity: x[0,3] + x[1,3] + x[2,3] + x[3,3] + x[4,3] <= 100
Bounds
Binaries
 x[0,0] x[0,1] x[0,2] x[0,3] x[1,0] x[1,1] x[1,2] x[1,3] x[2,0] x[2,1]
 x[2,2] x[2,3] x[3,0] x[3,1] x[3,2] x[3,3] x[4,0] x[4,1] x[4,2] x[4,3]
End
